&control
    calculation= 'scf'
    restart_mode= 'from_scratch'
    prefix='silicon'
    pseudo_dir= './'
    outdir= './output'
 /
 &system
    ibrav= 2 
    celldm(1)= 10.2000
    nat= 2
    ntyp= 1
    ecutwfc= 20.0
    nbnd=8
    nosym= .true.
 /
 &electrons
    diagonalization= 'david'
    mixing_mode= 'plain'
    mixing_beta= 0.7
    conv_thr= 1.0d-8
    diago_full_acc= .true.
 /
ATOMIC_SPECIES
 Si  28.086  Si.pz-vbc.UPF
ATOMIC_POSITIONS
 Si 0.00 0.00 0.00
 Si 0.25 0.25 0.25
K_POINTS crystal
	 8 
    0.2500000   0.2500000   0.2500000      0.2500000    
    0.2500000   0.2500000  -0.2500000      0.2500000
    0.2500000  -0.2500000   0.2500000      0.2500000    
   -0.2500000   0.2500000   0.2500000      0.2500000
    0.2500000  -0.2500000  -0.2500000      0.2500000
   -0.2500000   0.2500000  -0.2500000      0.2500000    
   -0.2500000  -0.2500000   0.2500000      0.2500000                    
   -0.2500000  -0.2500000  -0.2500000      0.2500000    
