&control
    calculation= 'scf'
    restart_mode= 'from_scratch'
    prefix='silicon'
    tstress= .true.
    tprnfor= .true.
    pseudo_dir= './'
    outdir= './'
 /
 &system
    ibrav= 2 
    celldm(1)= 10.2000
    nat= 2
    ntyp= 1
    ecutwfc= 15.0
    nbnd= 10
    nosym= .true.
 /
 &electrons
    diagonalization= 'david'
    mixing_mode= 'plain'
    mixing_beta= 0.7
    conv_thr= 1.0d-8
    diago_full_acc= .true.
 /
ATOMIC_SPECIES
 Si  28.086  Si.pz-vbc.UPF
ATOMIC_POSITIONS
 Si 0.00 0.00 0.00
 Si 0.25 0.25 0.25
K_POINTS tpiba
	64 
   -0.1250000   0.1250000   0.1250000      0.0312500
   -0.3750000   0.3750000  -0.1250000      0.0312500
    0.3750000  -0.3750000   0.6250000      0.0312500
    0.1250000  -0.1250000   0.3750000      0.0312500
    0.1250000   0.3750000   0.3750000      0.0312500
   -0.1250000   0.6250000   0.1250000      0.0312500
    0.6250000  -0.1250000   0.8750000      0.0312500
    0.3750000   0.1250000   0.6250000      0.0312500
   -0.6250000  -0.3750000  -0.3750000      0.0312500
   -0.8750000  -0.1250000  -0.6250000      0.0312500
   -0.1250000  -0.8750000   0.1250000      0.0312500
   -0.3750000  -0.6250000  -0.1250000      0.0312500
   -0.3750000  -0.1250000  -0.1250000      0.0312500
   -0.6250000   0.1250000  -0.3750000      0.0312500
    0.1250000  -0.6250000   0.3750000      0.0312500
   -0.1250000  -0.3750000   0.1250000      0.0312500
   -0.3750000  -0.1250000   0.3750000      0.0312500
   -0.6250000   0.1250000   0.1250000      0.0312500
    0.1250000  -0.6250000   0.8750000      0.0312500
   -0.1250000  -0.3750000   0.6250000      0.0312500
   -0.1250000   0.1250000   0.6250000      0.0312500
   -0.3750000   0.3750000   0.3750000      0.0312500
    0.3750000  -0.3750000   1.1250000      0.0312500
    0.1250000  -0.1250000   0.8750000      0.0312500
   -0.8750000  -0.6250000  -0.1250000      0.0312500
   -1.1250000  -0.3750000  -0.3750000      0.0312500
   -0.3750000  -1.1250000   0.3750000      0.0312500
   -0.6250000  -0.8750000   0.1250000      0.0312500
   -0.6250000  -0.3750000   0.1250000      0.0312500
   -0.8750000  -0.1250000  -0.1250000      0.0312500
   -0.1250000  -0.8750000   0.6250000      0.0312500
   -0.3750000  -0.6250000   0.3750000      0.0312500
    0.1250000  -0.1250000  -0.1250000      0.0312500
    0.3750000  -0.3750000   0.1250000      0.0312500
   -0.3750000   0.3750000  -0.6250000      0.0312500
   -0.1250000   0.1250000  -0.3750000      0.0312500
   -0.1250000  -0.3750000  -0.3750000      0.0312500
    0.1250000  -0.6250000  -0.1250000      0.0312500
   -0.6250000   0.1250000  -0.8750000      0.0312500
   -0.3750000  -0.1250000  -0.6250000      0.0312500
    0.6250000   0.3750000   0.3750000      0.0312500
    0.8750000   0.1250000   0.6250000      0.0312500
    0.1250000   0.8750000  -0.1250000      0.0312500
    0.3750000   0.6250000   0.1250000      0.0312500
    0.3750000   0.1250000   0.1250000      0.0312500
    0.6250000  -0.1250000   0.3750000      0.0312500
   -0.1250000   0.6250000  -0.3750000      0.0312500
    0.1250000   0.3750000  -0.1250000      0.0312500
    0.3750000   0.1250000  -0.3750000      0.0312500
    0.6250000  -0.1250000  -0.1250000      0.0312500
   -0.1250000   0.6250000  -0.8750000      0.0312500
    0.1250000   0.3750000  -0.6250000      0.0312500
    0.1250000  -0.1250000  -0.6250000      0.0312500
    0.3750000  -0.3750000  -0.3750000      0.0312500
   -0.3750000   0.3750000  -1.1250000      0.0312500
   -0.1250000   0.1250000  -0.8750000      0.0312500
    0.8750000   0.6250000   0.1250000      0.0312500
    1.1250000   0.3750000   0.3750000      0.0312500
    0.3750000   1.1250000  -0.3750000      0.0312500
    0.6250000   0.8750000  -0.1250000      0.0312500
    0.6250000   0.3750000  -0.1250000      0.0312500
    0.8750000   0.1250000   0.1250000      0.0312500
    0.1250000   0.8750000  -0.6250000      0.0312500
    0.3750000   0.6250000  -0.3750000      0.0312500